33
0	0
1	923
2	1284
3	0
4	0
5	545
6	784
7	457
8	0
9	288
10	912
11	210
12	902
13	226
14	917
15	932
16	927
17	907
18	204
19	924
20	930
21	463
22	1286
23	928
24	931
25	1173
26	1388
27	934
28	789
29	698
30	1488
31	1493
32	1497
